(set-logic HORN)
(set-info :source |
    Benchmark: Horn constraint system (34 clauses, 33 relation symbols)
    Generated by Eldarica (http://lara.epfl.ch/w/eldarica)
    Output by Princess (http://www.philipp.ruemmer.org/princess.shtml)
|)
(set-info :status sat)
(declare-fun predh52_5 (Int Int Int Int Int Int Int Int Int Int Int Int Int Int Int Int Int Int Int Int) Bool)
(declare-fun predh10_22 (Int Int Int Int Int Int Int Int Int Int Int Int Int Int Int Int Int Int Int Int) Bool)
(declare-fun predh41_10 (Int Int Int Int Int Int Int Int Int Int Int Int Int Int Int Int Int Int Int Int) Bool)
(declare-fun predh10_26 (Int Int Int Int Int Int Int Int Int Int Int Int Int Int Int Int Int Int Int Int) Bool)
(declare-fun predh10_18 (Int Int Int Int Int Int Int Int Int Int Int Int Int Int Int Int Int Int Int Int) Bool)
(declare-fun predh45_3 (Int Int Int Int Int Int Int Int Int Int Int Int Int Int Int Int Int Int Int Int) Bool)
(declare-fun predh10_14 (Int Int Int Int Int Int Int Int Int Int Int Int Int Int Int Int Int Int Int Int) Bool)
(declare-fun predh45_6 (Int Int Int Int Int Int Int Int Int Int Int Int Int Int Int Int Int Int Int Int) Bool)
(declare-fun predh25_15 (Int Int Int Int Int Int Int Int Int Int Int Int Int Int Int Int Int Int Int Int) Bool)
(declare-fun predh45_27 (Int Int Int Int Int Int Int Int Int Int Int Int Int Int Int Int Int Int Int Int) Bool)
(declare-fun predh30_31 (Int Int Int Int Int Int Int Int Int Int Int Int Int Int Int Int Int Int Int Int) Bool)
(declare-fun predh41_28 (Int Int Int Int Int Int Int Int Int Int Int Int Int Int Int Int Int Int Int Int) Bool)
(declare-fun predh25_23 (Int Int Int Int Int Int Int Int Int Int Int Int Int Int Int Int Int Int Int Int) Bool)
(declare-fun predh22_16 (Int Int Int Int Int Int Int Int Int Int Int Int Int Int Int Int Int Int Int Int) Bool)
(declare-fun predh37_11 (Int Int Int Int Int Int Int Int Int Int Int Int Int Int Int Int Int Int Int Int) Bool)
(declare-fun predh18_21 (Int Int Int Int Int Int Int Int Int Int Int Int Int Int Int Int Int Int Int Int) Bool)
(declare-fun predh55_7 (Int Int Int Int Int Int Int Int Int Int Int Int Int Int Int Int Int Int Int Int) Bool)
(declare-fun predh30_13 (Int Int Int Int Int Int Int Int Int Int Int Int Int Int Int Int Int Int Int Int) Bool)
(declare-fun predh6_33 (Int Int Int Int Int Int Int Int Int Int Int Int Int Int Int Int Int Int Int Int) Bool)
(declare-fun predh10_32 (Int Int Int Int Int Int Int Int Int Int Int Int Int Int Int Int Int Int Int Int) Bool)
(declare-fun predh57_1 (Int Int Int Int Int Int Int Int Int Int Int Int Int Int Int Int Int Int Int Int) Bool)
(declare-fun predh52_2 (Int Int Int Int Int Int Int Int Int Int Int Int Int Int Int Int Int Int Int Int) Bool)
(declare-fun predh30_30 (Int Int Int Int Int Int Int Int Int Int Int Int Int Int Int Int Int Int Int Int) Bool)
(declare-fun predh18_17 (Int Int Int Int Int Int Int Int Int Int Int Int Int Int Int Int Int Int Int Int) Bool)
(declare-fun predh22_24 (Int Int Int Int Int Int Int Int Int Int Int Int Int Int Int Int Int Int Int Int) Bool)
(declare-fun predh52_8 (Int Int Int Int Int Int Int Int Int Int Int Int Int Int Int Int Int Int Int Int) Bool)
(declare-fun predh18_25 (Int Int Int Int Int Int Int Int Int Int Int Int Int Int Int Int Int Int Int Int) Bool)
(declare-fun predh55_4 (Int Int Int Int Int Int Int Int Int Int Int Int Int Int Int Int Int Int Int Int) Bool)
(declare-fun predh30_12 (Int Int Int Int Int Int Int Int Int Int Int Int Int Int Int Int Int Int Int Int) Bool)
(declare-fun predh45_9 (Int Int Int Int Int Int Int Int Int Int Int Int Int Int Int Int Int Int Int Int) Bool)
(declare-fun predh30_29 (Int Int Int Int Int Int Int Int Int Int Int Int Int Int Int Int Int Int Int Int) Bool)
(declare-fun predh25_19 (Int Int Int Int Int Int Int Int Int Int Int Int Int Int Int Int Int Int Int Int) Bool)
(declare-fun predh22_20 (Int Int Int Int Int Int Int Int Int Int Int Int Int Int Int Int Int Int Int Int) Bool)
(assert (forall ((var0 Int)) (forall ((var1 Int)) (forall ((var2 Int)) (forall ((var3 Int)) (forall ((var4 Int)) (forall ((var5 Int)) (forall ((var6 Int)) (forall ((var7 Int)) (forall ((var8 Int)) (forall ((var9 Int)) (forall ((var10 Int)) (forall ((var11 Int)) (forall ((var12 Int)) (forall ((var13 Int)) (forall ((var14 Int)) (forall ((var15 Int)) (forall ((var16 Int)) (forall ((var17 Int)) (forall ((var18 Int)) (forall ((var19 Int)) (not (predh57_1 var19 var18 var17 var16 var15 var14 var13 var12 var11 var10 var9 var8 var7 var6 var5 var4 var3 var2 var1 var0 ) ) ) ) ) ) ) ) ) ) ) ) ) ) ) ) ) ) ) ) ) ) )
(assert (forall ((var0 Int)) (forall ((var1 Int)) (forall ((var2 Int)) (forall ((var3 Int)) (forall ((var4 Int)) (forall ((var5 Int)) (forall ((var6 Int)) (forall ((var7 Int)) (forall ((var8 Int)) (forall ((var9 Int)) (forall ((var10 Int)) (forall ((var11 Int)) (forall ((var12 Int)) (forall ((var13 Int)) (forall ((var14 Int)) (forall ((var15 Int)) (forall ((var16 Int)) (forall ((var17 Int)) (forall ((var18 Int)) (forall ((var19 Int)) (not (and (and (<= 0 (+ (+ var5 (* (- 1) var2 ) ) (* (- 1) 1 ) ) ) (<= 0 var2 ) ) (and (predh52_2 var19 var18 var17 var16 var15 var14 var13 var12 var11 var10 var9 var8 var7 var6 var5 var4 var3 var2 var1 var0 ) (not (predh57_1 var19 var18 var17 var16 var15 var14 var13 var12 var11 var10 var9 var8 var7 var6 var5 var4 var3 var2 var1 var0 ) ) ) ) ) ) ) ) ) ) ) ) ) ) ) ) ) ) ) ) ) ) ) ) ) )
(assert (forall ((var0 Int)) (forall ((var1 Int)) (forall ((var2 Int)) (forall ((var3 Int)) (forall ((var4 Int)) (forall ((var5 Int)) (forall ((var6 Int)) (forall ((var7 Int)) (forall ((var8 Int)) (forall ((var9 Int)) (forall ((var10 Int)) (forall ((var11 Int)) (forall ((var12 Int)) (forall ((var13 Int)) (forall ((var14 Int)) (forall ((var15 Int)) (forall ((var16 Int)) (forall ((var17 Int)) (forall ((var18 Int)) (forall ((var19 Int)) (not (and (and (and (<= 0 (+ (+ (* (- 1) var5 ) var4 ) (* (- 1) 1 ) ) ) (<= 0 (+ var5 (* (- 1) var3 ) ) ) ) (<= 0 var3 ) ) (and (predh45_3 var19 var18 var17 var16 var15 var14 var13 var12 var11 var10 var9 var8 var7 var6 var5 var4 var3 var2 var1 var0 ) (not (predh52_2 var19 var18 var17 var16 var15 var14 var13 var12 var11 var10 var9 var8 var7 var6 var5 var4 var3 var2 var1 var0 ) ) ) ) ) ) ) ) ) ) ) ) ) ) ) ) ) ) ) ) ) ) ) ) ) )
(assert (forall ((var0 Int)) (forall ((var1 Int)) (forall ((var2 Int)) (forall ((var3 Int)) (forall ((var4 Int)) (forall ((var5 Int)) (forall ((var6 Int)) (forall ((var7 Int)) (forall ((var8 Int)) (forall ((var9 Int)) (forall ((var10 Int)) (forall ((var11 Int)) (forall ((var12 Int)) (forall ((var13 Int)) (forall ((var14 Int)) (forall ((var15 Int)) (forall ((var16 Int)) (forall ((var17 Int)) (forall ((var18 Int)) (forall ((var19 Int)) (not (and (predh55_4 var19 var18 var17 var16 var15 var14 var13 var12 var11 var10 var9 var8 var7 var6 var5 var4 var3 var2 var1 var0 ) (not (predh45_3 var19 var18 var17 var16 var15 var14 var13 var12 var11 var10 var9 var8 var7 var6 (+ var5 1 ) var4 var3 var2 var1 var0 ) ) ) ) ) ) ) ) ) ) ) ) ) ) ) ) ) ) ) ) ) ) ) ) )
(assert (forall ((var0 Int)) (forall ((var1 Int)) (forall ((var2 Int)) (forall ((var3 Int)) (forall ((var4 Int)) (forall ((var5 Int)) (forall ((var6 Int)) (forall ((var7 Int)) (forall ((var8 Int)) (forall ((var9 Int)) (forall ((var10 Int)) (forall ((var11 Int)) (forall ((var12 Int)) (forall ((var13 Int)) (forall ((var14 Int)) (forall ((var15 Int)) (forall ((var16 Int)) (forall ((var17 Int)) (forall ((var18 Int)) (forall ((var19 Int)) (not (and (and (<= 0 (+ (* (- 1) var5 ) var2 ) ) (<= 0 var2 ) ) (and (predh52_5 var19 var18 var17 var16 var15 var14 var13 var12 var11 var10 var9 var8 var7 var6 var5 var4 var3 var2 var1 var0 ) (not (predh55_4 var19 var18 var17 var16 var15 var14 var13 var12 var11 var10 var9 var8 var7 var6 var5 var4 var3 var2 var1 var0 ) ) ) ) ) ) ) ) ) ) ) ) ) ) ) ) ) ) ) ) ) ) ) ) ) )
(assert (forall ((var0 Int)) (forall ((var1 Int)) (forall ((var2 Int)) (forall ((var3 Int)) (forall ((var4 Int)) (forall ((var5 Int)) (forall ((var6 Int)) (forall ((var7 Int)) (forall ((var8 Int)) (forall ((var9 Int)) (forall ((var10 Int)) (forall ((var11 Int)) (forall ((var12 Int)) (forall ((var13 Int)) (forall ((var14 Int)) (forall ((var15 Int)) (forall ((var16 Int)) (forall ((var17 Int)) (forall ((var18 Int)) (forall ((var19 Int)) (not (and (and (and (<= 0 (+ (+ (* (- 1) var5 ) var4 ) (* (- 1) 1 ) ) ) (<= 0 (+ var5 (* (- 1) var3 ) ) ) ) (<= 0 var3 ) ) (and (predh45_6 var19 var18 var17 var16 var15 var14 var13 var12 var11 var10 var9 var8 var7 var6 var5 var4 var3 var2 var1 var0 ) (not (predh52_5 var19 var18 var17 var16 var15 var14 var13 var12 var11 var10 var9 var8 var7 var6 var5 var4 var3 var2 var1 var0 ) ) ) ) ) ) ) ) ) ) ) ) ) ) ) ) ) ) ) ) ) ) ) ) ) )
(assert (forall ((var0 Int)) (forall ((var1 Int)) (forall ((var2 Int)) (forall ((var3 Int)) (forall ((var4 Int)) (forall ((var5 Int)) (forall ((var6 Int)) (forall ((var7 Int)) (forall ((var8 Int)) (forall ((var9 Int)) (forall ((var10 Int)) (forall ((var11 Int)) (forall ((var12 Int)) (forall ((var13 Int)) (forall ((var14 Int)) (forall ((var15 Int)) (forall ((var16 Int)) (forall ((var17 Int)) (forall ((var18 Int)) (forall ((var19 Int)) (not (and (predh55_7 var19 var18 var17 var16 var15 var14 var13 var12 var11 var10 var9 var8 var7 var6 var5 var4 var3 var2 var1 var0 ) (not (predh45_6 var19 var18 var17 var16 var15 var14 var13 var12 var11 var10 var9 var8 var7 var6 (+ var5 1 ) var4 var3 var2 var1 var0 ) ) ) ) ) ) ) ) ) ) ) ) ) ) ) ) ) ) ) ) ) ) ) ) )
(assert (forall ((var0 Int)) (forall ((var1 Int)) (forall ((var2 Int)) (forall ((var3 Int)) (forall ((var4 Int)) (forall ((var5 Int)) (forall ((var6 Int)) (forall ((var7 Int)) (forall ((var8 Int)) (forall ((var9 Int)) (forall ((var10 Int)) (forall ((var11 Int)) (forall ((var12 Int)) (forall ((var13 Int)) (forall ((var14 Int)) (forall ((var15 Int)) (forall ((var16 Int)) (forall ((var17 Int)) (forall ((var18 Int)) (forall ((var19 Int)) (not (and (and (<= 0 (+ (* (- 1) var5 ) var2 ) ) (<= 0 var2 ) ) (and (predh52_8 var19 var18 var17 var16 var15 var14 var13 var12 var11 var10 var9 var8 var7 var6 var5 var4 var3 var2 var1 var0 ) (not (predh55_7 var19 var18 var17 var16 var15 var14 var13 var12 var11 var10 var9 var8 var7 var6 var5 var4 var3 var2 var1 var0 ) ) ) ) ) ) ) ) ) ) ) ) ) ) ) ) ) ) ) ) ) ) ) ) ) )
(assert (forall ((var0 Int)) (forall ((var1 Int)) (forall ((var2 Int)) (forall ((var3 Int)) (forall ((var4 Int)) (forall ((var5 Int)) (forall ((var6 Int)) (forall ((var7 Int)) (forall ((var8 Int)) (forall ((var9 Int)) (forall ((var10 Int)) (forall ((var11 Int)) (forall ((var12 Int)) (forall ((var13 Int)) (forall ((var14 Int)) (forall ((var15 Int)) (forall ((var16 Int)) (forall ((var17 Int)) (forall ((var18 Int)) (forall ((var19 Int)) (not (and (and (and (<= 0 (+ (+ (* (- 1) var5 ) var4 ) (* (- 1) 1 ) ) ) (<= 0 (+ var5 (* (- 1) var3 ) ) ) ) (<= 0 var3 ) ) (and (predh45_9 var19 var18 var17 var16 var15 var14 var13 var12 var11 var10 var9 var8 var7 var6 var5 var4 var3 var2 var1 var0 ) (not (predh52_8 var19 var18 var17 var16 var15 var14 var13 var12 var11 var10 var9 var8 var7 var6 var5 var4 var3 var2 var1 var0 ) ) ) ) ) ) ) ) ) ) ) ) ) ) ) ) ) ) ) ) ) ) ) ) ) )
(assert (forall ((var0 Int)) (forall ((var1 Int)) (forall ((var2 Int)) (forall ((var3 Int)) (forall ((var4 Int)) (forall ((var5 Int)) (forall ((var6 Int)) (forall ((var7 Int)) (forall ((var8 Int)) (forall ((var9 Int)) (forall ((var10 Int)) (forall ((var11 Int)) (forall ((var12 Int)) (forall ((var13 Int)) (forall ((var14 Int)) (forall ((var15 Int)) (forall ((var16 Int)) (forall ((var17 Int)) (forall ((var18 Int)) (forall ((var19 Int)) (forall ((var20 Int)) (not (and (= 0 (+ (+ (+ (* 2 var20 ) (* (- 1) var6 ) ) (* (- 1) var4 ) ) 1 ) ) (and (predh41_10 var19 var18 var17 var16 var15 var14 var13 var12 var11 var10 var9 var8 var7 var6 var5 var4 var3 var2 var1 var0 ) (not (predh45_9 var19 var18 var17 var16 var15 var14 var13 var12 var11 var10 var9 var8 var7 var6 var6 var4 var3 var2 var1 var20 ) ) ) ) ) ) ) ) ) ) ) ) ) ) ) ) ) ) ) ) ) ) ) ) ) ) )
(assert (forall ((var0 Int)) (forall ((var1 Int)) (forall ((var2 Int)) (forall ((var3 Int)) (forall ((var4 Int)) (forall ((var5 Int)) (forall ((var6 Int)) (forall ((var7 Int)) (forall ((var8 Int)) (forall ((var9 Int)) (forall ((var10 Int)) (forall ((var11 Int)) (forall ((var12 Int)) (forall ((var13 Int)) (forall ((var14 Int)) (forall ((var15 Int)) (forall ((var16 Int)) (forall ((var17 Int)) (forall ((var18 Int)) (forall ((var19 Int)) (not (and (predh37_11 var19 var18 var17 var16 var15 var14 var13 var12 var11 var10 var9 var8 var7 var6 var5 var4 var3 var2 var1 var0 ) (not (predh41_10 var19 var18 var17 var16 var15 var14 var13 var12 var11 var10 var9 var8 var7 var6 var5 var4 var3 var2 var1 var0 ) ) ) ) ) ) ) ) ) ) ) ) ) ) ) ) ) ) ) ) ) ) ) ) )
(assert (forall ((var0 Int)) (forall ((var1 Int)) (forall ((var2 Int)) (forall ((var3 Int)) (forall ((var4 Int)) (forall ((var5 Int)) (forall ((var6 Int)) (forall ((var7 Int)) (forall ((var8 Int)) (forall ((var9 Int)) (forall ((var10 Int)) (forall ((var11 Int)) (forall ((var12 Int)) (forall ((var13 Int)) (forall ((var14 Int)) (forall ((var15 Int)) (forall ((var16 Int)) (forall ((var17 Int)) (forall ((var18 Int)) (forall ((var19 Int)) (not (and (<= 0 (+ var9 (* (- 1) var4 ) ) ) (and (predh30_12 var19 var18 var17 var16 var15 var14 var13 var12 var11 var10 var9 var8 var7 var6 var5 var4 var3 var2 var1 var0 ) (not (predh37_11 var19 var18 var17 var16 var15 var14 var13 var12 var11 var10 var9 var8 var7 var6 var5 var4 var3 var2 var1 var0 ) ) ) ) ) ) ) ) ) ) ) ) ) ) ) ) ) ) ) ) ) ) ) ) ) )
(assert (forall ((var0 Int)) (forall ((var1 Int)) (forall ((var2 Int)) (forall ((var3 Int)) (forall ((var4 Int)) (forall ((var5 Int)) (forall ((var6 Int)) (forall ((var7 Int)) (forall ((var8 Int)) (forall ((var9 Int)) (forall ((var10 Int)) (forall ((var11 Int)) (forall ((var12 Int)) (forall ((var13 Int)) (forall ((var14 Int)) (forall ((var15 Int)) (forall ((var16 Int)) (forall ((var17 Int)) (forall ((var18 Int)) (forall ((var19 Int)) (not (and (<= 0 (+ var9 (* (- 1) var4 ) ) ) (and (predh30_13 var19 var18 var17 var16 var15 var14 var13 var12 var11 var10 var9 var8 var7 var6 var5 var4 var3 var2 var1 var0 ) (not (predh30_12 var19 var18 var17 var16 var15 var14 var13 var12 var11 var10 var9 var8 var7 var6 var5 (+ var4 1 ) var3 var2 var1 var0 ) ) ) ) ) ) ) ) ) ) ) ) ) ) ) ) ) ) ) ) ) ) ) ) ) )
(assert (forall ((var0 Int)) (forall ((var1 Int)) (forall ((var2 Int)) (forall ((var3 Int)) (forall ((var4 Int)) (forall ((var5 Int)) (forall ((var6 Int)) (forall ((var7 Int)) (forall ((var8 Int)) (forall ((var9 Int)) (forall ((var10 Int)) (forall ((var11 Int)) (forall ((var12 Int)) (forall ((var13 Int)) (forall ((var14 Int)) (forall ((var15 Int)) (forall ((var16 Int)) (forall ((var17 Int)) (forall ((var18 Int)) (forall ((var19 Int)) (not (and (<= 0 (+ (+ var9 (* (- 1) var6 ) ) (* (- 1) 1 ) ) ) (and (predh10_14 var19 var18 var17 var16 var15 var14 var13 var12 var11 var10 var9 var8 var7 var6 var5 var4 var3 var2 var1 var0 ) (not (predh30_13 var19 var18 var17 var16 var15 var14 var13 var12 var11 var10 var9 var8 var7 var6 var5 (+ var6 1 ) var3 var2 var1 var0 ) ) ) ) ) ) ) ) ) ) ) ) ) ) ) ) ) ) ) ) ) ) ) ) ) )
(assert (forall ((var0 Int)) (forall ((var1 Int)) (forall ((var2 Int)) (forall ((var3 Int)) (forall ((var4 Int)) (forall ((var5 Int)) (forall ((var6 Int)) (forall ((var7 Int)) (forall ((var8 Int)) (forall ((var9 Int)) (forall ((var10 Int)) (forall ((var11 Int)) (forall ((var12 Int)) (forall ((var13 Int)) (forall ((var14 Int)) (forall ((var15 Int)) (forall ((var16 Int)) (forall ((var17 Int)) (forall ((var18 Int)) (forall ((var19 Int)) (not (and (predh25_15 var19 var18 var17 var16 var15 var14 var13 var12 var11 var10 var9 var8 var7 var6 var5 var4 var3 var2 var1 var0 ) (not (predh10_14 var19 var18 var17 var16 var15 var14 var13 var12 var11 var10 var9 var8 var7 (+ var6 1 ) var5 var4 var3 var2 var1 var0 ) ) ) ) ) ) ) ) ) ) ) ) ) ) ) ) ) ) ) ) ) ) ) ) )
(assert (forall ((var0 Int)) (forall ((var1 Int)) (forall ((var2 Int)) (forall ((var3 Int)) (forall ((var4 Int)) (forall ((var5 Int)) (forall ((var6 Int)) (forall ((var7 Int)) (forall ((var8 Int)) (forall ((var9 Int)) (forall ((var10 Int)) (forall ((var11 Int)) (forall ((var12 Int)) (forall ((var13 Int)) (forall ((var14 Int)) (forall ((var15 Int)) (forall ((var16 Int)) (forall ((var17 Int)) (forall ((var18 Int)) (forall ((var19 Int)) (not (and (and (<= 0 (+ (* (- 1) var6 ) var2 ) ) (<= 0 var2 ) ) (and (predh22_16 var19 var18 var17 var16 var15 var14 var13 var12 var11 var10 var9 var8 var7 var6 var5 var4 var3 var2 var1 var0 ) (not (predh25_15 var19 var18 var17 var16 var15 var14 var13 var12 var11 var10 var9 var8 var7 var6 var5 var4 var3 var2 var1 var0 ) ) ) ) ) ) ) ) ) ) ) ) ) ) ) ) ) ) ) ) ) ) ) ) ) )
(assert (forall ((var0 Int)) (forall ((var1 Int)) (forall ((var2 Int)) (forall ((var3 Int)) (forall ((var4 Int)) (forall ((var5 Int)) (forall ((var6 Int)) (forall ((var7 Int)) (forall ((var8 Int)) (forall ((var9 Int)) (forall ((var10 Int)) (forall ((var11 Int)) (forall ((var12 Int)) (forall ((var13 Int)) (forall ((var14 Int)) (forall ((var15 Int)) (forall ((var16 Int)) (forall ((var17 Int)) (forall ((var18 Int)) (forall ((var19 Int)) (not (and (and (<= 0 (+ var6 (* (- 1) var3 ) ) ) (<= 0 var3 ) ) (and (predh18_17 var19 var18 var17 var16 var15 var14 var13 var12 var11 var10 var9 var8 var7 var6 var5 var4 var3 var2 var1 var0 ) (not (predh22_16 var19 var18 var17 var16 var15 var14 var13 var12 var11 var10 var9 var8 var7 var6 var5 var4 var3 var2 var1 var0 ) ) ) ) ) ) ) ) ) ) ) ) ) ) ) ) ) ) ) ) ) ) ) ) ) )
(assert (forall ((var0 Int)) (forall ((var1 Int)) (forall ((var2 Int)) (forall ((var3 Int)) (forall ((var4 Int)) (forall ((var5 Int)) (forall ((var6 Int)) (forall ((var7 Int)) (forall ((var8 Int)) (forall ((var9 Int)) (forall ((var10 Int)) (forall ((var11 Int)) (forall ((var12 Int)) (forall ((var13 Int)) (forall ((var14 Int)) (forall ((var15 Int)) (forall ((var16 Int)) (forall ((var17 Int)) (forall ((var18 Int)) (forall ((var19 Int)) (not (and (<= 0 (+ (+ var9 (* (- 1) var6 ) ) (* (- 1) 1 ) ) ) (and (predh10_18 var19 var18 var17 var16 var15 var14 var13 var12 var11 var10 var9 var8 var7 var6 var5 var4 var3 var2 var1 var0 ) (not (predh18_17 var19 var18 var17 var16 var15 var14 var13 var12 var11 var10 var9 var8 var7 var6 var5 var4 var3 var2 var1 var0 ) ) ) ) ) ) ) ) ) ) ) ) ) ) ) ) ) ) ) ) ) ) ) ) ) )
(assert (forall ((var0 Int)) (forall ((var1 Int)) (forall ((var2 Int)) (forall ((var3 Int)) (forall ((var4 Int)) (forall ((var5 Int)) (forall ((var6 Int)) (forall ((var7 Int)) (forall ((var8 Int)) (forall ((var9 Int)) (forall ((var10 Int)) (forall ((var11 Int)) (forall ((var12 Int)) (forall ((var13 Int)) (forall ((var14 Int)) (forall ((var15 Int)) (forall ((var16 Int)) (forall ((var17 Int)) (forall ((var18 Int)) (forall ((var19 Int)) (not (and (predh25_19 var19 var18 var17 var16 var15 var14 var13 var12 var11 var10 var9 var8 var7 var6 var5 var4 var3 var2 var1 var0 ) (not (predh10_18 var19 var18 var17 var16 var15 var14 var13 var12 var11 var10 var9 var8 var7 (+ var6 1 ) var5 var4 var3 var2 var1 var0 ) ) ) ) ) ) ) ) ) ) ) ) ) ) ) ) ) ) ) ) ) ) ) ) )
(assert (forall ((var0 Int)) (forall ((var1 Int)) (forall ((var2 Int)) (forall ((var3 Int)) (forall ((var4 Int)) (forall ((var5 Int)) (forall ((var6 Int)) (forall ((var7 Int)) (forall ((var8 Int)) (forall ((var9 Int)) (forall ((var10 Int)) (forall ((var11 Int)) (forall ((var12 Int)) (forall ((var13 Int)) (forall ((var14 Int)) (forall ((var15 Int)) (forall ((var16 Int)) (forall ((var17 Int)) (forall ((var18 Int)) (forall ((var19 Int)) (not (and (and (<= 0 (+ (* (- 1) var6 ) var2 ) ) (<= 0 var2 ) ) (and (predh22_20 var19 var18 var17 var16 var15 var14 var13 var12 var11 var10 var9 var8 var7 var6 var5 var4 var3 var2 var1 var0 ) (not (predh25_19 var19 var18 var17 var16 var15 var14 var13 var12 var11 var10 var9 var8 var7 var6 var5 var4 var3 var2 var1 var0 ) ) ) ) ) ) ) ) ) ) ) ) ) ) ) ) ) ) ) ) ) ) ) ) ) )
(assert (forall ((var0 Int)) (forall ((var1 Int)) (forall ((var2 Int)) (forall ((var3 Int)) (forall ((var4 Int)) (forall ((var5 Int)) (forall ((var6 Int)) (forall ((var7 Int)) (forall ((var8 Int)) (forall ((var9 Int)) (forall ((var10 Int)) (forall ((var11 Int)) (forall ((var12 Int)) (forall ((var13 Int)) (forall ((var14 Int)) (forall ((var15 Int)) (forall ((var16 Int)) (forall ((var17 Int)) (forall ((var18 Int)) (forall ((var19 Int)) (not (and (and (<= 0 (+ var6 (* (- 1) var3 ) ) ) (<= 0 var3 ) ) (and (predh18_21 var19 var18 var17 var16 var15 var14 var13 var12 var11 var10 var9 var8 var7 var6 var5 var4 var3 var2 var1 var0 ) (not (predh22_20 var19 var18 var17 var16 var15 var14 var13 var12 var11 var10 var9 var8 var7 var6 var5 var4 var3 var2 var1 var0 ) ) ) ) ) ) ) ) ) ) ) ) ) ) ) ) ) ) ) ) ) ) ) ) ) )
(assert (forall ((var0 Int)) (forall ((var1 Int)) (forall ((var2 Int)) (forall ((var3 Int)) (forall ((var4 Int)) (forall ((var5 Int)) (forall ((var6 Int)) (forall ((var7 Int)) (forall ((var8 Int)) (forall ((var9 Int)) (forall ((var10 Int)) (forall ((var11 Int)) (forall ((var12 Int)) (forall ((var13 Int)) (forall ((var14 Int)) (forall ((var15 Int)) (forall ((var16 Int)) (forall ((var17 Int)) (forall ((var18 Int)) (forall ((var19 Int)) (not (and (<= 0 (+ (+ var9 (* (- 1) var6 ) ) (* (- 1) 1 ) ) ) (and (predh10_22 var19 var18 var17 var16 var15 var14 var13 var12 var11 var10 var9 var8 var7 var6 var5 var4 var3 var2 var1 var0 ) (not (predh18_21 var19 var18 var17 var16 var15 var14 var13 var12 var11 var10 var9 var8 var7 var6 var5 var4 var3 var2 var1 var0 ) ) ) ) ) ) ) ) ) ) ) ) ) ) ) ) ) ) ) ) ) ) ) ) ) )
(assert (forall ((var0 Int)) (forall ((var1 Int)) (forall ((var2 Int)) (forall ((var3 Int)) (forall ((var4 Int)) (forall ((var5 Int)) (forall ((var6 Int)) (forall ((var7 Int)) (forall ((var8 Int)) (forall ((var9 Int)) (forall ((var10 Int)) (forall ((var11 Int)) (forall ((var12 Int)) (forall ((var13 Int)) (forall ((var14 Int)) (forall ((var15 Int)) (forall ((var16 Int)) (forall ((var17 Int)) (forall ((var18 Int)) (forall ((var19 Int)) (not (and (predh25_23 var19 var18 var17 var16 var15 var14 var13 var12 var11 var10 var9 var8 var7 var6 var5 var4 var3 var2 var1 var0 ) (not (predh10_22 var19 var18 var17 var16 var15 var14 var13 var12 var11 var10 var9 var8 var7 (+ var6 1 ) var5 var4 var3 var2 var1 var0 ) ) ) ) ) ) ) ) ) ) ) ) ) ) ) ) ) ) ) ) ) ) ) ) )
(assert (forall ((var0 Int)) (forall ((var1 Int)) (forall ((var2 Int)) (forall ((var3 Int)) (forall ((var4 Int)) (forall ((var5 Int)) (forall ((var6 Int)) (forall ((var7 Int)) (forall ((var8 Int)) (forall ((var9 Int)) (forall ((var10 Int)) (forall ((var11 Int)) (forall ((var12 Int)) (forall ((var13 Int)) (forall ((var14 Int)) (forall ((var15 Int)) (forall ((var16 Int)) (forall ((var17 Int)) (forall ((var18 Int)) (forall ((var19 Int)) (not (and (and (<= 0 (+ (* (- 1) var6 ) var2 ) ) (<= 0 var2 ) ) (and (predh22_24 var19 var18 var17 var16 var15 var14 var13 var12 var11 var10 var9 var8 var7 var6 var5 var4 var3 var2 var1 var0 ) (not (predh25_23 var19 var18 var17 var16 var15 var14 var13 var12 var11 var10 var9 var8 var7 var6 var5 var4 var3 var2 var1 var0 ) ) ) ) ) ) ) ) ) ) ) ) ) ) ) ) ) ) ) ) ) ) ) ) ) )
(assert (forall ((var0 Int)) (forall ((var1 Int)) (forall ((var2 Int)) (forall ((var3 Int)) (forall ((var4 Int)) (forall ((var5 Int)) (forall ((var6 Int)) (forall ((var7 Int)) (forall ((var8 Int)) (forall ((var9 Int)) (forall ((var10 Int)) (forall ((var11 Int)) (forall ((var12 Int)) (forall ((var13 Int)) (forall ((var14 Int)) (forall ((var15 Int)) (forall ((var16 Int)) (forall ((var17 Int)) (forall ((var18 Int)) (forall ((var19 Int)) (not (and (and (<= 0 (+ var6 (* (- 1) var3 ) ) ) (<= 0 var3 ) ) (and (predh18_25 var19 var18 var17 var16 var15 var14 var13 var12 var11 var10 var9 var8 var7 var6 var5 var4 var3 var2 var1 var0 ) (not (predh22_24 var19 var18 var17 var16 var15 var14 var13 var12 var11 var10 var9 var8 var7 var6 var5 var4 var3 var2 var1 var0 ) ) ) ) ) ) ) ) ) ) ) ) ) ) ) ) ) ) ) ) ) ) ) ) ) )
(assert (forall ((var0 Int)) (forall ((var1 Int)) (forall ((var2 Int)) (forall ((var3 Int)) (forall ((var4 Int)) (forall ((var5 Int)) (forall ((var6 Int)) (forall ((var7 Int)) (forall ((var8 Int)) (forall ((var9 Int)) (forall ((var10 Int)) (forall ((var11 Int)) (forall ((var12 Int)) (forall ((var13 Int)) (forall ((var14 Int)) (forall ((var15 Int)) (forall ((var16 Int)) (forall ((var17 Int)) (forall ((var18 Int)) (forall ((var19 Int)) (not (and (<= 0 (+ (+ var9 (* (- 1) var6 ) ) (* (- 1) 1 ) ) ) (and (predh10_26 var19 var18 var17 var16 var15 var14 var13 var12 var11 var10 var9 var8 var7 var6 var5 var4 var3 var2 var1 var0 ) (not (predh18_25 var19 var18 var17 var16 var15 var14 var13 var12 var11 var10 var9 var8 var7 var6 var5 var4 var3 var2 var1 var0 ) ) ) ) ) ) ) ) ) ) ) ) ) ) ) ) ) ) ) ) ) ) ) ) ) )
(assert (forall ((var0 Int)) (forall ((var1 Int)) (forall ((var2 Int)) (forall ((var3 Int)) (forall ((var4 Int)) (forall ((var5 Int)) (forall ((var6 Int)) (forall ((var7 Int)) (forall ((var8 Int)) (forall ((var9 Int)) (forall ((var10 Int)) (forall ((var11 Int)) (forall ((var12 Int)) (forall ((var13 Int)) (forall ((var14 Int)) (forall ((var15 Int)) (forall ((var16 Int)) (forall ((var17 Int)) (forall ((var18 Int)) (forall ((var19 Int)) (not (and (<= 0 (+ var5 (* (- 1) var4 ) ) ) (and (predh45_27 var19 var18 var17 var16 var15 var14 var13 var12 var11 var10 var9 var8 var7 var6 var5 var4 var3 var2 var1 var0 ) (not (predh10_26 var19 var18 var17 var16 var15 var14 var13 var12 var11 var10 var9 var8 var7 var4 var5 var4 var3 var2 (+ (* (- 1) var6 ) var4 ) var0 ) ) ) ) ) ) ) ) ) ) ) ) ) ) ) ) ) ) ) ) ) ) ) ) ) )
(assert (forall ((var0 Int)) (forall ((var1 Int)) (forall ((var2 Int)) (forall ((var3 Int)) (forall ((var4 Int)) (forall ((var5 Int)) (forall ((var6 Int)) (forall ((var7 Int)) (forall ((var8 Int)) (forall ((var9 Int)) (forall ((var10 Int)) (forall ((var11 Int)) (forall ((var12 Int)) (forall ((var13 Int)) (forall ((var14 Int)) (forall ((var15 Int)) (forall ((var16 Int)) (forall ((var17 Int)) (forall ((var18 Int)) (forall ((var19 Int)) (forall ((var20 Int)) (not (and (= 0 (+ (+ (+ (* 2 var20 ) (* (- 1) var6 ) ) (* (- 1) var4 ) ) 1 ) ) (and (predh41_28 var19 var18 var17 var16 var15 var14 var13 var12 var11 var10 var9 var8 var7 var6 var5 var4 var3 var2 var1 var0 ) (not (predh45_27 var19 var18 var17 var16 var15 var14 var13 var12 var11 var10 var9 var8 var7 var6 var6 var4 var3 var2 var1 var20 ) ) ) ) ) ) ) ) ) ) ) ) ) ) ) ) ) ) ) ) ) ) ) ) ) ) )
(assert (forall ((var0 Int)) (forall ((var1 Int)) (forall ((var2 Int)) (forall ((var3 Int)) (forall ((var4 Int)) (forall ((var5 Int)) (forall ((var6 Int)) (forall ((var7 Int)) (forall ((var8 Int)) (forall ((var9 Int)) (forall ((var10 Int)) (forall ((var11 Int)) (forall ((var12 Int)) (forall ((var13 Int)) (forall ((var14 Int)) (forall ((var15 Int)) (forall ((var16 Int)) (forall ((var17 Int)) (forall ((var18 Int)) (forall ((var19 Int)) (not (and (<= 0 (+ (+ (* (- 1) var9 ) var4 ) (* (- 1) 1 ) ) ) (and (predh30_29 var19 var18 var17 var16 var15 var14 var13 var12 var11 var10 var9 var8 var7 var6 var5 var4 var3 var2 var1 var0 ) (not (predh41_28 var19 var18 var17 var16 var15 var14 var13 var12 var11 var10 var9 var8 var7 var6 var5 var4 var3 var2 var1 var0 ) ) ) ) ) ) ) ) ) ) ) ) ) ) ) ) ) ) ) ) ) ) ) ) ) )
(assert (forall ((var0 Int)) (forall ((var1 Int)) (forall ((var2 Int)) (forall ((var3 Int)) (forall ((var4 Int)) (forall ((var5 Int)) (forall ((var6 Int)) (forall ((var7 Int)) (forall ((var8 Int)) (forall ((var9 Int)) (forall ((var10 Int)) (forall ((var11 Int)) (forall ((var12 Int)) (forall ((var13 Int)) (forall ((var14 Int)) (forall ((var15 Int)) (forall ((var16 Int)) (forall ((var17 Int)) (forall ((var18 Int)) (forall ((var19 Int)) (not (and (<= 0 (+ var9 (* (- 1) var4 ) ) ) (and (predh30_30 var19 var18 var17 var16 var15 var14 var13 var12 var11 var10 var9 var8 var7 var6 var5 var4 var3 var2 var1 var0 ) (not (predh30_29 var19 var18 var17 var16 var15 var14 var13 var12 var11 var10 var9 var8 var7 var6 var5 (+ var4 1 ) var3 var2 var1 var0 ) ) ) ) ) ) ) ) ) ) ) ) ) ) ) ) ) ) ) ) ) ) ) ) ) )
(assert (forall ((var0 Int)) (forall ((var1 Int)) (forall ((var2 Int)) (forall ((var3 Int)) (forall ((var4 Int)) (forall ((var5 Int)) (forall ((var6 Int)) (forall ((var7 Int)) (forall ((var8 Int)) (forall ((var9 Int)) (forall ((var10 Int)) (forall ((var11 Int)) (forall ((var12 Int)) (forall ((var13 Int)) (forall ((var14 Int)) (forall ((var15 Int)) (forall ((var16 Int)) (forall ((var17 Int)) (forall ((var18 Int)) (forall ((var19 Int)) (not (and (<= 0 (+ var9 (* (- 1) var4 ) ) ) (and (predh30_31 var19 var18 var17 var16 var15 var14 var13 var12 var11 var10 var9 var8 var7 var6 var5 var4 var3 var2 var1 var0 ) (not (predh30_30 var19 var18 var17 var16 var15 var14 var13 var12 var11 var10 var9 var8 var7 var6 var5 (+ var4 1 ) var3 var2 var1 var0 ) ) ) ) ) ) ) ) ) ) ) ) ) ) ) ) ) ) ) ) ) ) ) ) ) )
(assert (forall ((var0 Int)) (forall ((var1 Int)) (forall ((var2 Int)) (forall ((var3 Int)) (forall ((var4 Int)) (forall ((var5 Int)) (forall ((var6 Int)) (forall ((var7 Int)) (forall ((var8 Int)) (forall ((var9 Int)) (forall ((var10 Int)) (forall ((var11 Int)) (forall ((var12 Int)) (forall ((var13 Int)) (forall ((var14 Int)) (forall ((var15 Int)) (forall ((var16 Int)) (forall ((var17 Int)) (forall ((var18 Int)) (forall ((var19 Int)) (not (and (<= 0 (+ (+ var9 (* (- 1) var6 ) ) (* (- 1) 1 ) ) ) (and (predh10_32 var19 var18 var17 var16 var15 var14 var13 var12 var11 var10 var9 var8 var7 var6 var5 var4 var3 var2 var1 var0 ) (not (predh30_31 var19 var18 var17 var16 var15 var14 var13 var12 var11 var10 var9 var8 var7 var6 var5 (+ var6 1 ) var3 var2 var1 var0 ) ) ) ) ) ) ) ) ) ) ) ) ) ) ) ) ) ) ) ) ) ) ) ) ) )
(assert (forall ((var0 Int)) (forall ((var1 Int)) (forall ((var2 Int)) (forall ((var3 Int)) (forall ((var4 Int)) (forall ((var5 Int)) (forall ((var6 Int)) (forall ((var7 Int)) (forall ((var8 Int)) (forall ((var9 Int)) (forall ((var10 Int)) (forall ((var11 Int)) (forall ((var12 Int)) (forall ((var13 Int)) (forall ((var14 Int)) (forall ((var15 Int)) (forall ((var16 Int)) (forall ((var17 Int)) (forall ((var18 Int)) (forall ((var19 Int)) (not (and (predh6_33 var19 var18 var17 var16 var15 var14 var13 var12 var11 var10 var9 var8 var7 var6 var5 var4 var3 var2 var1 var0 ) (not (predh10_32 var19 var18 var17 var16 var15 var14 var13 var12 var11 var10 var9 var8 var7 var6 var5 var4 var3 var2 var1 var0 ) ) ) ) ) ) ) ) ) ) ) ) ) ) ) ) ) ) ) ) ) ) ) ) )
(assert (forall ((var0 Int)) (forall ((var1 Int)) (forall ((var2 Int)) (forall ((var3 Int)) (forall ((var4 Int)) (forall ((var5 Int)) (forall ((var6 Int)) (forall ((var7 Int)) (not (and (<= 0 var2 ) (not (predh6_33 var2 var6 var5 var7 var4 var3 1 var2 var1 var0 var2 var6 var5 1 var4 var3 1 var2 var1 var0 ) ) ) ) ) ) ) ) ) ) ) ) )
(check-sat)
